Instancias/Instancias_pequeñas/instance8B.dat
8 

0 78 57 5 26 87 91 82 
45 0 3 52 28 1 59 10 
30 35 0 46 19 72 4 19 
83 32 32 0 85 65 91 47 
77 45 77 7 0 66 36 65 
43 57 53 30 53 0 58 61 
67 83 35 89 26 72 0 3 
48 12 96 46 5 65 70 0 

0 81 73 74 51 34 9 63 
55 0 48 18 39 1 69 90 
41 76 0 84 19 60 53 36 
30 94 93 0 79 19 18 52 
16 32 42 1 0 29 92 7 
45 61 9 99 17 0 67 82 
43 70 53 65 16 68 0 69 
74 63 1 38 28 77 82 0 
