Soluciones/instance8B.out
117245 0.040909
8
4 7 3 5 6 0 2 1 